Problem:    
Rows:       248
Columns:    89 (72 integer, 72 binary)
Non-zeros:  820
Status:     INTEGER OPTIMAL
Objective:  value = 75.437 (MINimum)

   No.   Row name        Activity     Lower bound   Upper bound
------ ------------    ------------- ------------- -------------
     1 r.5                    75.437             0               
     2 r.6                  -344.375      -483.033               
     3 r.7                   575.437             0               
     4 r.8                  -452.633      -482.917               
     5 r.9                   575.437             0               
     6 r.10                 -474.586       -480.82               
     7 r.11                   75.437             0               
     8 r.12                   10.547      -481.871               
     9 r.13                  575.437             0               
    10 r.14                 -442.859      -471.273               
    11 r.15                   75.437             0               
    12 r.16                 -413.465      -479.606               
    13 r.17                   75.437             0               
    14 r.18                 -329.533      -485.158               
    15 r.19                  575.437             0               
    16 r.20                 -480.294      -487.841               
    17 r.21                   75.437             0               
    18 r.22                 -315.978      -486.445               
    19 r.23                  575.437             0               
    20 r.24                 -469.716      -489.422               
    21 r.25                   75.437             0               
    22 r.26                 -400.422      -460.563               
    23 r.27                  575.437             0               
    24 r.28                 -436.859      -487.226               
    25 r.29                   75.437             0               
    26 r.30                 -361.342       -460.92               
    27 r.31                  575.437             0               
    28 r.32                 -424.563      -487.704               
    29 r.33                  575.437             0               
    30 r.34                 -498.453      -498.453               
    31 r.35                   75.437             0               
    32 r.36                    1.547      -491.701               
    33 r.37                        1             1             = 
    34 r.38                        1             1             = 
    35 r.39                        1             1             = 
    36 r.40                        1             1             = 
    37 r.41                        1             1             = 
    38 r.42                        1             1             = 
    39 r.43                        1             1             = 
    40 r.44                        1             1             = 
    41 r.45                  369.789       19.1802               
    42 r.46                 -372.789      -483.033               
    43 r.47                   463.18        18.129               
    44 r.48                  -460.18      -482.917               
    45 r.49                  401.516       28.7266               
    46 r.50                 -404.516      -483.033               
    47 r.51                   39.168        20.394               
    48 r.52                  -36.168      -482.917               
    49 r.53                  14.8424       14.8424               
    50 r.54                 -14.8424      -483.033               
    51 r.55                  472.339        12.159               
    52 r.56                 -472.339      -482.917               
    53 r.57                  28.3974        13.555               
    54 r.58                 -28.3974      -483.033               
    55 r.59                  482.917        10.578               
    56 r.60                 -482.917      -482.917               
    57 r.61                 -56.0473      -457.563               
    58 r.62                 -92.4841      -484.226               
    59 r.63                 -447.789      -457.563               
    60 r.64                 -484.226      -484.226               
    61 r.65                  483.033       39.0798               
    62 r.66                 -483.033      -483.033               
    63 r.67                    28.07        12.296               
    64 r.68                   -28.07      -482.917               
    65 r.69                 -345.922      -480.033               
    66 r.70                  -454.18      -479.917               
    67 r.71                 -345.922      -480.033               
    68 r.72                  -454.18      -479.917               
    69 r.73                  127.211       16.9675               
    70 r.74                 -127.211       -480.82               
    71 r.75                    39.82        17.083               
    72 r.76                   -39.82      -481.871               
    73 r.77                  28.7266       28.7266               
    74 r.78                 -31.7266       -480.82               
    75 r.79                   78.988        20.394               
    76 r.80                  -75.988      -481.871               
    77 r.81                  142.053       14.8424               
    78 r.82                 -142.053       -480.82               
    79 r.83                   12.159        12.159               
    80 r.84                  -12.159      -481.871               
    81 r.85                  155.608        13.555               
    82 r.86                 -155.608       -480.82               
    83 r.87                   22.737        10.578               
    84 r.88                  -22.737      -481.871               
    85 r.89                  71.1634       39.4368               
    86 r.90                 -71.1634       -480.82               
    87 r.91                   55.594        12.774               
    88 r.92                  -55.594      -481.871               
    89 r.93                 -389.757       -457.92               
    90 r.94                 -452.977      -484.704               
    91 r.95                 -368.889       -457.92               
    92 r.96                  -432.11      -484.704               
    93 r.97                 -473.133       -477.82               
    94 r.98                        6      -478.871               
    95 r.99                 -473.133       -477.82               
    96 r.100                       6      -478.871               
    97 r.101                 95.4841       16.9675               
    98 r.102                -95.4841      -471.273               
    99 r.103                 463.832        17.083               
   100 r.104                -463.832      -479.606               
   101 r.105                 465.273       19.1802               
   102 r.106                -468.273      -471.273               
   103 r.107                 427.012        18.129               
   104 r.108                -424.012      -479.606               
   105 r.109                -110.326      -468.273               
   106 r.110                -86.9325      -476.606               
   107 r.111                -459.565      -468.273               
   108 r.112                -436.171      -476.606               
   109 r.113                 123.881        13.555               
   110 r.114                -123.881      -471.273               
   111 r.115                 446.749        10.578               
   112 r.116                -446.749      -479.606               
   113 r.117                 39.4368       39.4368               
   114 r.118                -39.4368      -471.273               
   115 r.119                 479.606        12.774               
   116 r.120                -479.606      -479.606               
   117 r.121                -421.483       -457.92               
   118 r.122                -484.704      -484.704               
   119 r.123                 55.1226       -457.92               
   120 r.124                  -8.098      -484.704               
   121 r.125                -441.406      -468.273               
   122 r.126                -418.012      -476.606               
   123 r.127                -441.406      -468.273               
   124 r.128                -418.012      -476.606               
   125 r.129                 485.158       16.9675               
   126 r.130                -485.158      -485.158               
   127 r.131                  27.661        17.083               
   128 r.132                 -27.661      -487.841               
   129 r.133                 354.947       19.1802               
   130 r.134                -357.947      -485.158               
   131 r.135                 490.841        18.129               
   132 r.136                -487.841      -487.841               
   133 r.137                -110.326      -468.273               
   134 r.138                -86.9325      -476.606               
   135 r.139                -459.565      -468.273               
   136 r.140                -436.171      -476.606               
   137 r.141                  13.555        13.555               
   138 r.142                 -13.555      -485.158               
   139 r.143                  10.578        10.578               
   140 r.144                 -10.578      -487.841               
   141 r.145                  429.11       39.4368               
   142 r.146                 -429.11      -485.158               
   143 r.147                  43.435        12.774               
   144 r.148                 -43.435      -487.841               
   145 r.149                -31.8099       -457.92               
   146 r.150                -95.0305      -484.704               
   147 r.151                -381.048       -457.92               
   148 r.152                -444.269      -484.704               
   149 r.153                 -331.08      -479.158               
   150 r.154                -481.841      -481.841               
   151 r.155                 -331.08      -479.158               
   152 r.156                -481.841      -481.841               
   153 r.157                 471.603       16.9675               
   154 r.158                -471.603      -486.445               
   155 r.159                  17.083        17.083               
   156 r.160                 -17.083      -489.422               
   157 r.161                 341.392       19.1802               
   158 r.162                -344.392      -486.445               
   159 r.163                 480.263        18.129               
   160 r.164                -477.263      -489.422               
   161 r.165                 373.119       28.7266               
   162 r.166                -376.119      -486.445               
   163 r.167                  56.251        20.394               
   164 r.168                 -53.251      -489.422               
   165 r.169                 486.445       14.8424               
   166 r.170                -486.445      -486.445               
   167 r.171                 489.422        12.159               
   168 r.172                -489.422      -489.422               
   169 r.173                -84.4447      -457.563               
   170 r.174                -120.881      -484.226               
   171 r.175                -430.706      -457.563               
   172 r.176                -467.143      -484.226               
   173 r.177                -45.3649       -457.92               
   174 r.178                -108.585      -484.704               
   175 r.179                -391.626       -457.92               
   176 r.180                -454.847      -484.704               
   177 r.181                -317.525      -480.445               
   178 r.182                -471.263      -483.422               
   179 r.183                -317.525      -480.445               
   180 r.184                -471.263      -483.422               
   181 r.185                -56.0473      -457.563               
   182 r.186                -92.4841      -484.226               
   183 r.187                -447.789      -457.563               
   184 r.188                -484.226      -484.226               
   185 r.189                 425.837       19.1802               
   186 r.190                -428.837      -460.563               
   187 r.191                 447.406        18.129               
   188 r.192                -444.406      -487.226               
   189 r.193                 457.563       28.7266               
   190 r.194                -460.563      -460.563               
   191 r.195                  23.394        20.394               
   192 r.196                 -20.394      -487.226               
   193 r.197                 70.8897       14.8424               
   194 r.198                -70.8897      -460.563               
   195 r.199                 456.565        12.159               
   196 r.200                -456.565      -487.226               
   197 r.201                -84.4447      -457.563               
   198 r.202                -120.881      -484.226               
   199 r.203                -430.706      -457.563               
   200 r.204                -467.143      -484.226               
   201 r.205                 39.0798       39.0798               
   202 r.206                -39.0798      -460.563               
   203 r.207                  12.296        12.296               
   204 r.208                 -12.296      -487.226               
   205 r.209                 16.9675       16.9675               
   206 r.210                -16.9675       -460.92               
   207 r.211                  471.93        17.083               
   208 r.212                 -471.93      -487.704               
   209 r.213                -389.757       -457.92               
   210 r.214                -452.977      -484.704               
   211 r.215                -368.889       -457.92               
   212 r.216                 -432.11      -484.704               
   213 r.217                -421.483       -457.92               
   214 r.218                -484.704      -484.704               
   215 r.219                 55.1226       -457.92               
   216 r.220                  -8.098      -484.704               
   217 r.221                -31.8099       -457.92               
   218 r.222                -95.0305      -484.704               
   219 r.223                -381.048       -457.92               
   220 r.224                -444.269      -484.704               
   221 r.225                -45.3649       -457.92               
   222 r.226                -108.585      -484.704               
   223 r.227                -391.626       -457.92               
   224 r.228                -454.847      -484.704               
   225 r.229                  460.92       39.4368               
   226 r.230                 -460.92       -460.92               
   227 r.231                 487.704        12.774               
   228 r.232                -487.704      -487.704               
   229 r.233                -345.922      -480.033               
   230 r.234                 -454.18      -479.917               
   231 r.235                -345.922      -480.033               
   232 r.236                 -454.18      -479.917               
   233 r.237                -473.133       -477.82               
   234 r.238                       6      -478.871               
   235 r.239                -473.133       -477.82               
   236 r.240                       6      -478.871               
   237 r.241                -441.406      -468.273               
   238 r.242                -418.012      -476.606               
   239 r.243                -441.406      -468.273               
   240 r.244                -418.012      -476.606               
   241 r.245                 -331.08      -479.158               
   242 r.246                -481.841      -481.841               
   243 r.247                 -331.08      -479.158               
   244 r.248                -481.841      -481.841               
   245 r.249                -317.525      -480.445               
   246 r.250                -471.263      -483.422               
   247 r.251                -317.525      -480.445               
   248 r.252                -471.263      -483.422               

   No. Column name       Activity     Lower bound   Upper bound
------ ------------    ------------- ------------- -------------
     1 tt                     75.437             0               
     2 s_1_1        *              0             0             1 
     3 t_1_1                 419.812             0               
     4 s_1_6        *              0             0             1 
     5 s_2_1        *              1             0             1 
     6 t_2_1                   28.07             0               
     7 s_2_6        *              1             0             1 
     8 s_1_2        *              1             0             1 
     9 t_1_2                 47.0226             0               
    10 s_1_7        *              0             0             1 
    11 s_2_2        *              0             0             1 
    12 t_2_2                   67.89             0               
    13 s_2_7        *              1             0             1 
    14 s_1_3        *              1             0             1 
    15 t_1_3                  15.296             0               
    16 s_2_3        *              0             0             1 
    17 t_2_3                 491.902             0               
    18 s_1_4        *              0             0             1 
    19 t_1_4                  404.97             0               
    20 s_2_4        *              1             0             1 
    21 t_2_4                  55.731             0               
    22 s_1_5        *              0             0             1 
    23 t_1_5                 391.415             0               
    24 s_2_5        *              1             0             1 
    25 t_2_5                  45.153             0               
    26 t_1_6                 475.859             0               
    27 t_2_6                  12.296             0               
    28 t_1_7                 436.779             0               
    29 t_2_7                       0             0               
    30 s_1_8        *              1             0             1 
    31 t_1_8                   73.89             0               
    32 s_2_8        *              0             0             1 
    33 t_2_8                   73.89             0               
    34 u_1_1_2      *              0             0             1 
    35 u_2_1_2      *              1             0             1 
    36 u_1_1_3      *              0             0             1 
    37 u_2_1_3      *              1             0             1 
    38 u_1_1_4      *              0             0             1 
    39 u_2_1_4      *              1             0             1 
    40 u_1_1_5      *              0             0             1 
    41 u_2_1_5      *              1             0             1 
    42 u_1_1_7      *              1             0             1 
    43 u_2_1_7      *              0             0             1 
    44 u_1_2_1      *              1             0             1 
    45 u_2_2_1      *              0             0             1 
    46 u_1_2_3      *              0             0             1 
    47 u_2_2_3      *              1             0             1 
    48 u_1_2_4      *              1             0             1 
    49 u_2_2_4      *              0             0             1 
    50 u_1_2_5      *              1             0             1 
    51 u_2_2_5      *              0             0             1 
    52 u_1_2_6      *              1             0             1 
    53 u_2_2_6      *              0             0             1 
    54 u_1_3_1      *              1             0             1 
    55 u_2_3_1      *              0             0             1 
    56 u_1_3_2      *              1             0             1 
    57 u_2_3_2      *              0             0             1 
    58 u_1_3_5      *              1             0             1 
    59 u_2_3_5      *              0             0             1 
    60 u_1_3_6      *              1             0             1 
    61 u_2_3_6      *              0             0             1 
    62 u_1_4_1      *              1             0             1 
    63 u_2_4_1      *              0             0             1 
    64 u_1_4_2      *              0             0             1 
    65 u_2_4_2      *              1             0             1 
    66 u_1_4_5      *              0             0             1 
    67 u_2_4_5      *              0             0             1 
    68 u_1_4_6      *              1             0             1 
    69 u_2_4_6      *              0             0             1 
    70 u_1_5_1      *              1             0             1 
    71 u_2_5_1      *              0             0             1 
    72 u_1_5_2      *              0             0             1 
    73 u_2_5_2      *              1             0             1 
    74 u_1_5_3      *              0             0             1 
    75 u_2_5_3      *              1             0             1 
    76 u_1_5_4      *              1             0             1 
    77 u_2_5_4      *              1             0             1 
    78 u_1_6_2      *              0             0             1 
    79 u_2_6_2      *              1             0             1 
    80 u_1_6_3      *              0             0             1 
    81 u_2_6_3      *              1             0             1 
    82 u_1_6_4      *              0             0             1 
    83 u_2_6_4      *              1             0             1 
    84 u_1_6_7      *              0             0             1 
    85 u_2_6_7      *              0             0             1 
    86 u_1_7_1      *              0             0             1 
    87 u_2_7_1      *              1             0             1 
    88 u_1_7_6      *              1             0             1 
    89 u_2_7_6      *              1             0             1 

Integer feasibility conditions:

KKT.PE: max.abs.err = 1.14e-13 on row 6
        max.rel.err = 1.04e-16 on row 69
        High quality

KKT.PB: max.abs.err = 5.68e-14 on row 56
        max.rel.err = 4.60e-15 on row 139
        High quality

End of output
